
Gurobi 8.1.1 (win64, Python) logging started 07/16/19 15:37:51

Academic license - for non-commercial use only
Error reading LP format file C:\Users\houss\AppData\Local\Temp\tmpe_ry2bzc.pyomo.lp at line 105380
Malformed term in expression
Neighboring tokens: " inf x99094 <= 0 c_u_x205340_: +1 x91007 "


Gurobi 8.1.1 (win64, Python) logging started 07/16/19 15:49:35

Academic license - for non-commercial use only
Read LP format model from file C:\Users\houss\AppData\Local\Temp\tmp6kf95h22.pyomo.lp
Reading time = 1.01 seconds
x189120: 131476 rows, 133228 columns, 540679 nonzeros
Changed value of parameter QCPDual to 1
   Prev: 0  Min: 0  Max: 1  Default: 0

Gurobi 8.1.1 (win64, Python) logging started 07/16/19 15:55:00

Academic license - for non-commercial use only
Read LP format model from file C:\Users\houss\AppData\Local\Temp\tmphw9dw208.pyomo.lp
Reading time = 1.01 seconds
x189120: 131476 rows, 133228 columns, 540679 nonzeros
Changed value of parameter QCPDual to 1
   Prev: 0  Min: 0  Max: 1  Default: 0
